# Solution for model r5_t18_m2_8
# Finished Task: 16 / 18
# Makespan: 718.0, Total Distance: 358.0, Total Time: 7.8466
# R O S F
0 0 12 161.0 161.0
1 1 21 217.0 217.0
2 2 20 221.0 221.0
3 3 18 178.0 178.0
4 4 14 132.0 132.0
5 0 10 646.0 670.0
6 3 11 608.0 646.0
7 2 -1 670.0 703.0
8 4 19 440.0 460.0
9 4 -1 690.0 718.0
10 0 -1 683.0 718.0
11 3 -1 669.0 703.0
12 0 5 383.0 403.0
13 4 9 578.0 608.0
14 4 8 406.0 440.0
15 1 -1 599.0 624.0
16 -1 -1 671.0 698.0
17 1 15 555.0 578.0
18 3 6 284.0 320.0
19 4 13 529.0 561.0
20 2 7 372.0 406.0
21 1 17 247.0 276.0
22 -1 -1 698.0 718.0
